(declare-const x0 Real)
(assert (<= 0.100000 x0))
(declare-const x1 Real)
(assert (<= 0.100000 x1))
(declare-const x2 Real)
(assert (<= 0.100000 x2))
(declare-const x3 Real)
(assert (<= 0.100000 x3))
(declare-const x4 Real)
(assert (<= 0.100000 x4))
(declare-const x5 Real)
(assert (<= 0.100000 x5))
(declare-const x6 Real)
(assert (<= 0.100000 x6))
(declare-const x7 Real)
(assert (<= 0.100000 x7))

(assert (<= (- 1.0) (+ (* (- 0.100000) x0) (- (* (* 0.058800 x6) x2)))))
(assert (<= (- 1.0) (+ (* (- 0.100000) x0) (* (- 0.100000) x1) (- (* (* 0.058800 x7) x3)))))
(assert (<= (- 1.0) (- (+ (/ (* 4.0 x4) x6) (/ 2.0 (* (^ x4 0.710000) x6)) (/ (* 0.058800 x2) (^ x4 1.300000))))))
(assert (<= (- 1.0) (- (+ (/ (* 4.0 x5) x7) (/ 2.0 (* (^ x5 0.710000) x7)) (/ (* 0.058800 x3) (^ x5 1.300000))))))
(assert (<= (- 9.900000) (+ (* (- 1.0) x0) (* (- 1.0) x1) (+ (* (* 0.400000 (^ x0 0.670000)) (^ x2 (- 0.670000))) (* (* 0.400000 (^ x1 0.670000)) (^ x3 (- 0.670000)))))))
(assert (<= (+ (* (- 1.0) x0) (* (- 1.0) x1) (+ (* (* 0.400000 (^ x0 0.670000)) (^ x2 (- 0.670000))) (* (* 0.400000 (^ x1 0.670000)) (^ x3 (- 0.670000))))) (- 5.800000)))

(minimize
	(+ (* (- 1.0) x0) (* (- 1.0) x1) (+ (* (* 0.400000 (^ x0 0.670000)) (^ x2 (- 0.670000))) (* (* 0.400000 (^ x1 0.670000)) (^ x3 (- 0.670000))) 10.0))
)
(check-sat)
(get-objectives)
(exit)

